c t mc
c file mc2022_track1_017.cnf
p cnf 130 688
-1 69 -124 2 -96 0
46 110 -58 -13 -67 0
96 -68 -104 15 10 0
-75 -63 36 -76 90 0
-76 90 -89 39 -105 0
15 -10 125 -117 -12 0
57 41 -113 19 98 0
23 -72 74 81 50 0
111 -70 83 -6 121 0
-101 18 128 64 -56 0
101 -18 128 -64 56 0
-1 69 124 2 96 0
-39 105 100 103 -33 0
-117 -12 16 17 -44 0
77 -49 -45 116 -123 0
54 66 108 53 -82 0
-101 -18 -128 64 -56 0
97 -42 107 -95 -5 0
-6 -121 -118 88 80 0
-111 -70 -83 -6 121 0
-39 105 -100 103 33 0
13 67 84 -57 -41 0
19 -98 -129 48 -14 0
-53 -82 102 -23 -72 0
39 -105 100 -103 33 0
-122 11 -62 -73 -24 0
-81 50 43 -26 -8 0
-73 -24 -87 101 -18 0
81 50 -43 -26 -8 0
117 12 -16 17 44 0
-119 38 -127 -1 69 0
122 11 62 73 24 0
96 68 -104 -15 10 0
-46 -110 -58 13 67 0
81 -50 43 26 8 0
-53 -82 -102 23 -72 0
-77 49 45 -116 -123 0
39 105 -100 103 -33 0
-88 80 -55 78 -52 0
-46 110 -58 13 -67 0
73 24 -87 101 -18 0
-95 5 28 -122 -11 0
-26 -8 -21 -126 25 0
-48 -14 -120 -111 70 0
-19 98 129 -48 -14 0
19 98 -129 -48 -14 0
46 -110 58 13 67 0
26 8 21 126 25 0
126 25 27 -115 3 0
51 112 99 -86 -20 0
40 37 -32 75 -63 0
35 -85 -7 -79 -22 0
117 -12 16 17 44 0
-91 31 -65 -77 49 0
35 85 7 79 22 0
51 112 99 86 20 0
-103 -33 -29 -97 -42 0
101 18 -128 -64 56 0
-6 -121 118 -88 80 0
17 44 -59 -51 -112 0
95 5 28 122 -11 0
-77 -49 -45 -116 -123 0
17 44 59 -51 112 0
15 -10 125 117 12 0
13 -67 -84 -57 -41 0
30 -71 114 -46 110 0
-103 -33 -29 97 42 0
40 -37 32 -75 63 0
-54 -66 -108 53 82 0
119 38 127 1 -69 0
109 -34 -61 -40 37 0
-48 14 120 -111 70 0
-46 110 58 -13 -67 0
40 37 32 -75 -63 0
79 -22 4 30 71 0
-6 121 118 -88 -80 0
76 90 89 39 -105 0
-96 -68 -104 -15 10 0
23 -72 -74 81 -50 0
-23 72 74 -81 -50 0
73 -24 -87 -101 -18 0
-79 22 4 30 71 0
35 85 -7 -79 22 0
1 -69 -124 2 -96 0
116 -123 -47 -35 -85 0
-95 -5 28 -122 11 0
40 -37 -32 75 63 0
-77 49 -45 -116 123 0
57 41 -113 -19 -98 0
-95 -5 -28 122 11 0
81 -50 -43 -26 8 0
91 31 65 -77 49 0
116 -123 47 -35 85 0
-126 25 27 -115 -3 0
-35 85 7 79 -22 0
77 49 -45 116 123 0
86 20 -106 -109 34 0
-119 38 127 1 69 0
30 -71 -114 46 110 0
103 -33 29 97 42 0
103 -33 29 -97 -42 0
-97 42 107 95 5 0
101 -18 -128 -64 -56 0
109 -34 61 40 37 0
111 -70 -83 -6 -121 0
-95 -5 -28 -122 -11 0
88 80 55 78 -52 0
-46 -110 58 -13 67 0
40 -37 -32 -75 -63 0
46 110 58 -13 67 0
-96 -68 104 -15 -10 0
-9 -130 60 91 31 0
-48 -14 -120 111 -70 0
117 12 -16 -17 -44 0
-39 -105 100 103 33 0
51 112 -99 86 -20 0
-88 80 55 -78 -52 0
46 -110 58 -13 -67 0
-103 -33 29 -97 42 0
-122 11 -62 73 24 0
64 -56 92 -9 130 0
-115 3 -94 -119 38 0
73 24 87 -101 -18 0
-17 44 -59 51 -112 0
-111 -70 83 6 121 0
39 -105 100 103 -33 0
-111 70 -83 -6 -121 0
48 14 -120 -111 70 0
115 -3 -94 -119 38 0
88 80 -55 -78 -52 0
-51 112 -99 86 20 0
126 -25 -27 115 -3 0
23 -72 -74 -81 50 0
30 71 -114 46 -110 0
-39 -105 100 -103 -33 0
13 67 -84 57 -41 0
26 8 -21 -126 25 0
-13 67 -84 -57 -41 0
91 -31 65 77 49 0
91 -31 -65 77 -49 0
-101 18 -128 -64 -56 0
-9 -130 -60 -91 31 0
-75 -63 -36 76 90 0
-126 25 -27 -115 3 0
-23 72 74 81 50 0
15 -10 -125 117 -12 0
97 42 107 95 -5 0
81 -50 -43 26 -8 0
26 8 -21 126 -25 0
117 -12 -16 17 -44 0
35 -85 -7 79 22 0
75 63 -36 -76 -90 0
-76 90 89 39 105 0
-19 -98 -129 48 14 0
78 52 93 54 66 0
23 72 -74 -81 -50 0
-115 3 -94 119 -38 0
-46 110 -58 -13 67 0
-97 42 -107 95 -5 0
-81 -50 -43 26 8 0
1 69 124 -2 96 0
17 -44 -59 51 -112 0
-9 -130 60 -91 -31 0
-103 33 29 97 42 0
79 -22 -4 -30 71 0
46 -110 -58 -13 67 0
-115 3 94 119 38 0
-78 -52 -93 -54 66 0
-6 -121 -118 -88 -80 0
30 71 -114 -46 110 0
-122 -11 62 73 24 0
15 10 -125 -117 -12 0
26 -8 21 126 -25 0
-115 -3 -94 119 38 0
-77 -49 45 116 -123 0
-97 -42 107 -95 5 0
64 -56 92 9 -130 0
-117 -12 16 -17 44 0
-54 66 108 53 82 0
101 -18 128 64 -56 0
-40 -37 32 75 63 0
-6 121 -118 88 -80 0
-13 67 84 -57 41 0
-17 44 59 51 112 0
-39 -105 -100 103 -33 0
-119 -38 -127 1 69 0
-116 -123 47 -35 -85 0
-101 18 -128 64 56 0
9 -130 -60 91 31 0
86 -20 -106 -109 -34 0
-76 90 89 -39 -105 0
103 33 -29 97 42 0
122 11 62 -73 -24 0
-53 82 -102 -23 -72 0
117 -12 -16 -17 44 0
119 -38 127 1 69 0
97 -42 107 95 5 0
19 98 129 -48 14 0
-40 -37 -32 75 -63 0
57 -41 113 19 98 0
-64 -56 92 9 130 0
97 42 -107 -95 -5 0
-116 123 -47 -35 -85 0
1 -69 -124 -2 96 0
78 -52 -93 -54 -66 0
-23 72 -74 81 -50 0
54 66 -108 53 82 0
-111 -70 -83 6 -121 0
13 -67 84 -57 41 0
-97 42 107 -95 -5 0
-91 -31 -65 77 49 0
77 49 45 -116 123 0
-111 70 83 6 -121 0
48 -14 -120 -111 -70 0
101 18 -128 64 -56 0
-13 67 -84 57 41 0
81 50 43 -26 8 0
53 82 102 23 72 0
23 72 -74 81 50 0
78 52 -93 54 -66 0
-39 105 100 -103 33 0
-48 -14 120 111 70 0
91 31 -65 77 49 0
76 -90 89 39 105 0
-75 63 36 -76 -90 0
-79 22 -4 30 -71 0
-78 52 93 54 -66 0
-1 -69 -124 -2 -96 0
97 -42 -107 -95 5 0
-30 71 -114 46 110 0
95 5 -28 122 11 0
88 -80 -55 -78 52 0
103 33 29 97 -42 0
95 5 28 -122 11 0
48 14 120 -111 -70 0
75 -63 -36 -76 90 0
-109 34 -61 -40 37 0
6 121 118 -88 80 0
-23 72 -74 -81 50 0
86 -20 -106 109 34 0
-81 -50 -43 -26 -8 0
95 -5 28 -122 -11 0
-76 90 -89 -39 105 0
6 -121 118 88 80 0
64 -56 -92 9 130 0
39 -105 -100 -103 -33 0
-19 98 129 48 14 0
-81 50 43 26 8 0
-64 -56 -92 9 -130 0
-77 -49 -45 116 123 0
-73 -24 87 101 18 0
35 85 -7 79 -22 0
97 42 107 -95 5 0
81 50 -43 26 8 0
-96 68 104 15 -10 0
-73 24 87 -101 18 0
6 121 -118 88 80 0
-81 50 -43 26 -8 0
-39 -105 -100 -103 33 0
-64 56 92 -9 130 0
76 90 -89 -39 -105 0
109 34 -61 -40 -37 0
-17 44 -59 -51 112 0
-15 -10 -125 117 12 0
-117 12 16 17 44 0
-86 20 -106 -109 -34 0
-97 -42 -107 -95 -5 0
-39 105 -100 -103 -33 0
1 69 -124 2 96 0
-1 69 124 -2 -96 0
64 56 -92 9 -130 0
19 -98 -129 -48 14 0
-17 -44 59 -51 112 0
-75 -63 -36 -76 -90 0
115 -3 -94 119 -38 0
1 -69 124 2 96 0
77 -49 45 -116 -123 0
-26 8 21 -126 25 0
119 -38 -127 -1 69 0
-1 -69 124 -2 96 0
-19 98 -129 -48 14 0
-116 -123 -47 -35 85 0
40 37 32 75 63 0
-15 -10 -125 -117 -12 0
-54 66 -108 -53 82 0
-119 38 127 -1 -69 0
15 10 125 117 -12 0
30 -71 -114 -46 -110 0
-95 -5 28 122 -11 0
-116 -123 -47 35 -85 0
-6 -121 118 88 -80 0
-86 20 106 -109 34 0
116 123 -47 -35 85 0
-101 -18 128 -64 -56 0
-79 -22 4 -30 71 0
126 25 27 115 -3 0
39 105 -100 -103 33 0
-64 56 92 9 -130 0
-73 -24 87 -101 -18 0
115 -3 94 119 38 0
51 -112 99 -86 20 0
-122 11 62 -73 24 0
64 56 92 -9 -130 0
-53 -82 -102 -23 72 0
-109 -34 61 40 -37 0
77 49 45 116 -123 0
-54 66 -108 53 -82 0
-51 -112 99 -86 -20 0
-19 -98 -129 -48 -14 0
119 38 127 -1 69 0
-91 31 -65 77 -49 0
-17 -44 -59 -51 -112 0
15 10 -125 117 12 0
95 -5 28 122 11 0
76 -90 89 -39 -105 0
-81 -50 43 -26 8 0
-40 -37 32 -75 -63 0
-103 33 -29 97 -42 0
9 -130 -60 -91 -31 0
-91 -31 65 77 -49 0
-54 66 108 -53 -82 0
17 -44 -59 -51 112 0
91 -31 65 -77 -49 0
-76 -90 -89 39 105 0
30 71 114 -46 -110 0
75 -63 36 -76 -90 0
-86 -20 106 109 34 0
54 -66 108 -53 -82 0
64 56 -92 -9 130 0
26 8 21 -126 -25 0
-109 34 61 -40 -37 0
75 -63 36 76 90 0
122 -11 62 73 -24 0
-64 -56 -92 -9 130 0
-122 11 62 73 -24 0
75 63 36 -76 90 0
103 -33 -29 -97 42 0
-75 63 -36 -76 90 0
-26 8 21 126 -25 0
-119 38 -127 1 -69 0
79 22 -4 30 71 0
86 20 106 -109 -34 0
81 -50 43 -26 -8 0
-30 -71 114 -46 -110 0
111 70 -83 6 -121 0
-1 -69 124 2 -96 0
86 20 106 109 34 0
-117 12 -16 -17 44 0
115 3 94 -119 38 0
115 3 -94 119 38 0
39 -105 -100 103 33 0
-48 14 120 111 -70 0
-86 20 -106 109 34 0
-78 -52 -93 54 -66 0
126 -25 27 115 3 0
17 -44 59 -51 -112 0
6 -121 -118 -88 80 0
79 -22 4 -30 -71 0
-86 -20 -106 109 -34 0
51 -112 -99 86 20 0
26 -8 21 -126 25 0
-86 20 106 109 -34 0
77 -49 -45 -116 123 0
-95 5 -28 -122 11 0
-51 -112 -99 -86 20 0
-78 52 93 -54 66 0
-35 85 7 -79 22 0
-88 80 55 78 52 0
-19 98 -129 48 -14 0
-15 10 125 117 12 0
-119 -38 127 -1 69 0
97 42 -107 95 5 0
91 -31 -65 -77 49 0
-57 -41 -113 19 98 0
-91 31 65 -77 -49 0
51 -112 99 86 -20 0
-9 -130 -60 91 -31 0
53 -82 -102 23 72 0
-1 69 -124 -2 96 0
79 22 4 30 -71 0
-101 18 128 -64 56 0
-35 85 -7 -79 -22 0
73 -24 87 101 -18 0
19 98 129 48 -14 0
-57 -41 113 -19 98 0
96 -68 104 15 -10 0
109 34 -61 40 37 0
9 130 60 -91 -31 0
73 -24 -87 101 18 0
91 31 65 77 -49 0
23 -72 74 -81 -50 0
-35 -85 7 -79 -22 0
88 80 -55 78 52 0
-126 -25 -27 -115 -3 0
-91 31 65 77 49 0
103 33 -29 -97 -42 0
-115 -3 94 119 -38 0
64 56 92 9 130 0
-13 -67 84 -57 -41 0
-26 8 -21 126 25 0
116 123 47 35 85 0
-109 34 -61 40 -37 0
-30 -71 114 46 110 0
73 24 -87 -101 18 0
30 71 114 46 110 0
-26 -8 -21 126 -25 0
54 66 108 -53 82 0
-88 -80 55 -78 52 0
-76 -90 89 -39 105 0
95 -5 -28 122 -11 0
-13 -67 84 57 41 0
-81 50 -43 -26 8 0
-88 -80 -55 78 52 0
-9 130 60 -91 31 0
-26 -8 21 126 25 0
-79 22 -4 -30 71 0
-30 71 -114 -46 -110 0
111 70 83 -6 -121 0
115 3 94 119 -38 0
-53 82 102 23 -72 0
-109 -34 -61 40 37 0
-26 8 -21 -126 -25 0
6 121 118 88 -80 0
-79 -22 -4 30 71 0
-15 10 -125 117 -12 0
-40 37 32 75 -63 0
75 63 -36 76 90 0
46 -110 -58 13 -67 0
-109 -34 61 -40 37 0
57 -41 -113 19 -98 0
17 44 59 51 -112 0
119 38 -127 1 69 0
-17 -44 59 51 -112 0
35 -85 7 79 -22 0
-51 112 99 86 -20 0
-57 41 -113 -19 98 0
78 -52 -93 54 66 0
126 25 -27 115 3 0
-30 -71 -114 46 -110 0
96 68 104 -15 -10 0
-126 -25 27 115 -3 0
48 14 120 111 70 0
116 -123 47 35 -85 0
46 110 58 13 -67 0
-96 -68 -104 15 -10 0
57 -41 113 -19 -98 0
-115 -3 -94 -119 -38 0
-88 -80 -55 -78 -52 0
-117 12 -16 17 -44 0
-91 -31 65 -77 49 0
-78 52 -93 -54 -66 0
-122 -11 62 -73 -24 0
-117 -12 -16 17 44 0
122 -11 -62 73 24 0
76 90 -89 39 105 0
-117 -12 -16 -17 -44 0
-30 -71 -114 -46 110 0
117 -12 16 -17 -44 0
-26 -8 21 -126 -25 0
111 70 83 6 121 0
54 -66 -108 -53 82 0
109 -34 -61 40 -37 0
79 22 -4 -30 -71 0
30 -71 114 46 -110 0
96 -68 -104 -15 -10 0
-51 112 -99 -86 -20 0
-96 68 104 -15 10 0
-91 -31 -65 -77 -49 0
119 -38 127 -1 -69 0
101 18 128 64 56 0
-116 123 47 -35 85 0
76 -90 -89 39 -105 0
-77 49 -45 116 -123 0
48 14 -120 111 -70 0
117 12 16 17 -44 0
-57 41 113 -19 -98 0
81 50 43 26 -8 0
-119 -38 -127 -1 -69 0
48 -14 -120 111 70 0
-40 37 -32 75 63 0
-23 -72 74 81 -50 0
53 -82 102 -23 72 0
17 -44 59 51 112 0
35 -85 7 -79 22 0
-97 -42 107 95 -5 0
57 -41 -113 -19 98 0
78 52 93 -54 -66 0
75 63 36 76 -90 0
-48 14 -120 -111 -70 0
-13 -67 -84 57 -41 0
1 -69 124 -2 -96 0
-23 -72 -74 -81 -50 0
23 72 74 -81 50 0
-17 -44 -59 51 112 0
-115 -3 94 -119 38 0
57 41 113 -19 98 0
19 -98 129 48 14 0
48 -14 120 -111 70 0
116 123 -47 35 -85 0
-103 33 -29 -97 42 0
75 -63 -36 76 -90 0
88 80 55 -78 52 0
96 68 -104 15 -10 0
122 11 -62 -73 24 0
13 67 -84 -57 41 0
-111 70 -83 6 121 0
-77 49 45 116 123 0
-96 -68 104 15 10 0
13 -67 -84 57 41 0
-30 71 114 -46 110 0
-73 24 87 101 -18 0
64 -56 -92 -9 -130 0
53 82 -102 -23 72 0
9 130 -60 -91 31 0
126 25 -27 -115 -3 0
-35 85 -7 79 22 0
-116 -123 47 35 85 0
77 -49 45 116 123 0
95 -5 -28 -122 11 0
-35 -85 7 79 22 0
6 121 -118 -88 -80 0
15 -10 -125 -117 12 0
-76 -90 -89 -39 -105 0
-75 -63 36 76 -90 0
-101 -18 128 64 56 0
-64 56 -92 -9 -130 0
76 -90 -89 -39 105 0
111 -70 83 6 -121 0
-57 41 113 19 98 0
126 -25 27 -115 -3 0
-95 5 -28 122 -11 0
116 123 47 -35 -85 0
-30 71 114 46 -110 0
15 10 125 -117 12 0
109 -34 61 -40 -37 0
-116 123 47 35 -85 0
103 33 29 -97 42 0
-75 63 -36 76 -90 0
-96 68 -104 15 10 0
88 -80 55 -78 -52 0
78 52 -93 -54 66 0
95 5 -28 -122 -11 0
96 -68 104 -15 10 0
-78 -52 93 54 66 0
53 82 -102 23 -72 0
-115 3 94 -119 -38 0
-15 10 125 -117 -12 0
-73 24 -87 -101 -18 0
-81 -50 43 26 -8 0
-53 82 102 -23 72 0
54 -66 108 53 82 0
-17 44 59 -51 -112 0
39 105 100 -103 -33 0
9 -130 60 91 -31 0
96 68 104 15 10 0
-46 -110 -58 -13 -67 0
-51 112 99 -86 20 0
6 -121 -118 88 -80 0
-40 37 32 -75 63 0
-117 12 16 -17 -44 0
-86 -20 106 -109 -34 0
119 38 -127 -1 -69 0
78 -52 93 -54 66 0
79 -22 -4 30 -71 0
-48 -14 120 -111 -70 0
-15 -10 125 -117 12 0
115 3 -94 -119 -38 0
115 -3 94 -119 -38 0
19 -98 129 -48 -14 0
88 -80 55 78 52 0
-79 22 4 -30 -71 0
86 20 -106 109 -34 0
-101 -18 -128 -64 56 0
-15 10 -125 -117 12 0
-57 -41 -113 -19 -98 0
78 -52 93 54 -66 0
-73 24 -87 101 18 0
109 34 61 -40 37 0
73 24 87 101 18 0
1 69 124 2 -96 0
117 12 16 -17 44 0
126 -25 -27 -115 3 0
-126 -25 27 -115 3 0
-46 -110 58 13 -67 0
111 70 -83 -6 121 0
-64 -56 92 -9 -130 0
122 -11 -62 -73 -24 0
-53 -82 102 23 72 0
-103 33 29 -97 -42 0
-88 80 -55 -78 52 0
73 -24 87 -101 18 0
1 69 -124 -2 -96 0
-109 -34 -61 -40 -37 0
53 -82 102 23 -72 0
-97 42 -107 -95 5 0
-75 63 36 76 90 0
40 -37 32 75 -63 0
88 -80 -55 78 -52 0
97 -42 -107 95 -5 0
23 72 74 81 -50 0
-64 56 -92 9 130 0
-126 25 27 115 3 0
46 110 -58 13 67 0
-76 -90 89 39 -105 0
-116 123 -47 35 85 0
-78 52 -93 54 66 0
-111 -70 83 -6 -121 0
39 105 100 103 33 0
35 85 7 -79 -22 0
-48 14 -120 111 70 0
-96 68 -104 -15 -10 0
-103 -33 29 97 -42 0
-51 -112 99 86 20 0
57 41 113 19 -98 0
9 130 -60 91 -31 0
54 -66 -108 53 -82 0
-40 -37 -32 -75 63 0
-126 25 -27 115 -3 0
53 82 102 -23 -72 0
-95 5 28 122 11 0
54 66 -108 -53 -82 0
26 -8 -21 -126 -25 0
-122 -11 -62 73 -24 0
-6 121 -118 -88 80 0
-19 -98 129 48 -14 0
40 37 -32 -75 63 0
-88 -80 55 78 -52 0
48 -14 120 111 -70 0
-9 130 60 91 -31 0
-77 -49 45 -116 123 0
-51 -112 -99 86 -20 0
-73 -24 -87 -101 18 0
-15 -10 125 117 -12 0
-13 -67 -84 -57 41 0
-19 -98 129 -48 14 0
26 -8 -21 126 25 0
-54 -66 108 53 -82 0
6 -121 118 -88 -80 0
-1 -69 -124 2 96 0
-35 -85 -7 -79 22 0
-79 -22 -4 -30 -71 0
19 98 -129 48 14 0
9 -130 60 -91 31 0
-9 130 -60 -91 -31 0
-54 -66 -108 -53 -82 0
17 44 -59 51 112 0
51 112 -99 -86 20 0
-109 34 61 40 37 0
79 22 4 -30 71 0
53 -82 -102 -23 -72 0
119 -38 -127 1 -69 0
-57 41 -113 19 -98 0
109 34 61 40 -37 0
122 11 -62 73 -24 0
13 67 84 57 41 0
-23 -72 74 -81 50 0
-6 121 118 88 80 0
91 31 -65 -77 -49 0
-79 -22 4 30 -71 0
-35 -85 -7 79 -22 0
-53 82 -102 23 72 0
-54 -66 108 -53 82 0
86 -20 106 109 -34 0
-119 -38 127 1 -69 0
9 130 60 91 31 0
-46 110 58 13 67 0
122 -11 62 -73 24 0
-111 70 83 -6 121 0
-126 -25 -27 115 3 0
-86 -20 -106 -109 34 0
101 18 128 -64 -56 0
86 -20 106 -109 34 0
-23 -72 -74 81 50 0
51 -112 -99 -86 -20 0
101 -18 -128 64 56 0
116 -123 -47 35 85 0
-40 37 -32 -75 -63 0
-97 -42 -107 95 5 0
13 -67 84 57 -41 0
-78 -52 93 -54 -66 0
77 49 -45 -116 -123 0
-57 -41 113 19 -98 0
103 -33 -29 97 -42 0
-9 130 -60 91 31 0
-13 67 84 57 -41 0
111 -70 -83 6 121 0
-122 -11 -62 -73 24 0
76 90 89 -39 105 0
